(set-info :smt-lib-version 2.6)
(set-logic QF_S)
(set-info :source |
Generated by: Murphy Berzish, Mitja Kulczynski, Federico Mora, Florin Manea, Joel Day, Dirk Nowotka, Vijay Ganesh, Zhengyang Lu
Generated on: 2020-10-01
Description: Translated from a collection of real-world regex queries, AutomataArk, collected by Loris D’Antoni and Fang Wang: https://github.com/lorisdanto/automatark
Application: Evaluate solvers on real-world regex queries
Target solver: Z3str3RE, CVC4, OSTRICH, Z3seq, Z3str3, Z3-Trau
Publications: Berzish, M., Kulczynski, M., Mora, F., Manea, F., Day, J. D., Nowotka, D., & Ganesh, V. (2021, July). An SMT solver for regular expressions and linear arithmetic over string length. In CAV 2021.
|)
(set-info :license "https://creativecommons.org/licenses/by/4.0/")
(set-info :category "industrial")
(set-info :status sat)

(declare-const X String)
(assert (not (str.in_re X (re.++ (re.union (re.++ (re.union (re.++ (re.opt (str.to_re "0")) (re.range "1" "9")) (re.++ (str.to_re "1") (re.range "0" "2"))) (re.union (str.to_re ":") (str.to_re ".")) (re.range "0" "5") (re.range "0" "9") (re.opt (re.++ (re.union (str.to_re ":") (str.to_re ".")) (re.range "0" "5") (re.range "0" "9"))) (re.opt (str.to_re " ")) (re.union (str.to_re "AM") (str.to_re "am") (str.to_re "aM") (str.to_re "Am") (str.to_re "PM") (str.to_re "pm") (str.to_re "pM") (str.to_re "Pm"))) (re.++ (re.union (re.++ (re.opt (str.to_re "0")) (re.range "0" "9")) (re.++ (str.to_re "1") (re.range "0" "9")) (re.++ (str.to_re "2") (re.range "0" "3"))) (re.union (str.to_re ":") (str.to_re ".")) (re.range "0" "5") (re.range "0" "9") (re.opt (re.++ (re.union (str.to_re ":") (str.to_re ".")) (re.range "0" "5") (re.range "0" "9"))))) (str.to_re "\u{a}")))))
(assert (str.in_re X (re.++ (re.+ (re.union (re.range "a" "z") (re.range "0" "9") (str.to_re "!") (str.to_re "$") (str.to_re "'") (str.to_re "*") (str.to_re "+") (str.to_re "-") (str.to_re "_"))) (re.* (re.++ (str.to_re ".") (re.+ (re.union (re.range "a" "z") (re.range "0" "9") (str.to_re "!") (str.to_re "$") (str.to_re "'") (str.to_re "*") (str.to_re "+") (str.to_re "-") (str.to_re "_"))))) (str.to_re "@") (re.+ (re.++ (re.+ (re.union (re.range "a" "z") (re.range "0" "9"))) (re.* (re.++ (re.+ (str.to_re "-")) (re.+ (re.union (re.range "a" "z") (re.range "0" "9"))))) (str.to_re "."))) (re.union ((_ re.loop 2 2) (re.range "a" "z")) (str.to_re "aero") (str.to_re "arpa") (str.to_re "biz") (str.to_re "cat") (str.to_re "com") (str.to_re "coop") (str.to_re "edu") (str.to_re "gov") (str.to_re "info") (str.to_re "int") (str.to_re "jobs") (str.to_re "mil") (str.to_re "mobi") (str.to_re "museum") (str.to_re "name") (str.to_re "net") (str.to_re "org") (str.to_re "pro") (str.to_re "travel")) (str.to_re "\u{a}"))))
(assert (not (str.in_re X (re.++ (re.union (re.++ (str.to_re "Jan") (re.opt (str.to_re "uary"))) (re.++ (str.to_re "Feb") (re.opt (str.to_re "ruary"))) (re.++ (str.to_re "Mar") (re.opt (str.to_re "ch"))) (re.++ (str.to_re "Apr") (re.opt (str.to_re "il"))) (str.to_re "May") (re.++ (str.to_re "Jun") (re.opt (str.to_re "e"))) (re.++ (str.to_re "Jul") (re.opt (str.to_re "y"))) (re.++ (str.to_re "Aug") (re.opt (str.to_re "ust"))) (re.++ (str.to_re "Sep") (re.opt (str.to_re "tember"))) (re.++ (str.to_re "Oct") (re.opt (str.to_re "ober"))) (re.++ (re.union (str.to_re "Nov") (str.to_re "Dec")) (re.opt (str.to_re "ember")))) (str.to_re "\u{a}")))))
(check-sat)

(exit)
